Test: fpga11_13_uns_rcr.cnf
Options: -no-inverting-opt -activity-look-freq=1
WARNING: for repeatability, setting FPU to use double precision
============================[ Problem Statistics ]=============================
|                                                                             |
|  Number of symmetries:           44                                         |
|  Number of invertingSyms:         0                                         |
|  Number of variables:           286                                         |
|  Number of clauses:            1742                                         |
|  Parse time:                   0.00 s                                       |
|                                                                             |
============================[ Search Statistics ]==============================
| Conflicts |          ORIGINAL         |          LEARNT          | Progress |
|           |    Vars  Clauses Literals |    Limit  Clauses Lit/Cl |          |
===============================================================================
|       100 |     286     1742     3718 |      638      127     59 |  0.001 % |
|       250 |     286     1742     3718 |      702      327     57 |  0.001 % |
|       475 |     286     1742     3718 |      772      645     56 |  0.001 % |
|       812 |     286     1742     3718 |      850      710     45 |  0.001 % |
|      1318 |     286     1742     3718 |      935      531     42 |  0.001 % |
|      2077 |     286     1742     3718 |     1028      943     39 |  0.001 % |
|      3216 |     286     1742     3718 |     1131      579     39 |  0.001 % |
|      4924 |     286     1742     3718 |     1244     1067     42 |  0.001 % |
|      7486 |     286     1742     3718 |     1369     1330     48 |  0.001 % |
|     11330 |     286     1742     3718 |     1506     1182     42 |  0.001 % |
===============================================================================
restarts              : 62
conflicts             : 15946          (29311 /sec)
symconflicts          : 2341           (4303 /sec)
decisions             : 28469          (0.00 % random) (52329 /sec)
propagations          : 868185         (1595829 /sec)
sympropagations       : 12476          (22932 /sec)
conflict literals     : 799034         (6.70 % deleted)
literals     : 799034         (6.70 % deleted)

HEURISTIC USAGES
random                : 0           
activity w/ lookahead : 28469       
activity no lookahead : 0           
original sp           : 0           
sym count             : 0           

Memory used           : 6.00 MB
CPU time              : 0.544034 s

UNSATISFIABLE
